/*instance size 340000*/ 
n=40;
t=50;
profit=[48 3 27 40 13 44 35 13 4 10 28 11 49 32 17 49 24 48 49 30 31 45 11 29 7 49 11 48 36 49 31 38 16 1 31 5 10 28 6 27];
length=[9 1 7 1 1 1 3 7 7 2 8 6 1 6 6 10 9 8 2 10 10 9 8 6 4 10 2 8 1 2 7 3 3 8 2 6 2 5 1 7];
min_deliver=[9 1 7 1 1 1 3 7 7 2 8 6 1 6 6 10 9 8 2 10 10 9 8 6 4 10 2 8 1 2 7 3 3 8 2 6 2 5 1 7];
max_deliver=[38 9 30 33 10 16 23 25 21 47 11 30 46 29 31 32 35 30 8 14 44 35 8 22 32 13 39 27 2 44 24 20 28 48 47 46 33 46 44 27];
surface=[5 14 5 2 15 8 1 9 10 13 11 4 7 5 2 15 16 16 3 3 3 10 2 15 3 14 14 7 8 3 12 4 3 6 11 1 11 16 15 2];
surface_capacity=16;
